
Gurobi 9.0.2 (win64) logging started Sat Oct 10 13:42:09 2020

Changed value of parameter logfile to result\v6.2-20201010T1221\scenario_2030_eff075_cab0000.log
   Prev:   Default: 
Gurobi Optimizer version 9.0.2 build v9.0.2rc0 (win64)
Optimize a model with 1384150 rows, 884815 columns and 3912195 nonzeros
Model fingerprint: 0xb1d55ac3
Coefficient statistics:
  Matrix range     [1e-07, 3e+05]
  Objective range  [1e+00, 1e+00]
  Bounds range     [0e+00, 0e+00]
  RHS range        [2e-05, 3e+08]
Warning: Model contains large matrix coefficient range
         Consider reformulating model or setting NumericFocus parameter
         to avoid numerical issues.

Concurrent LP optimizer: primal simplex, dual simplex, and barrier
Showing barrier log only...

Presolve removed 1138075 rows and 656242 columns
Presolve time: 3.44s
Presolved: 246075 rows, 342439 columns, 874418 nonzeros

Ordering time: 0.12s

Barrier statistics:
 Dense cols : 8
 AA' NZ     : 7.669e+05
 Factor NZ  : 4.246e+06 (roughly 270 MBytes of memory)
 Factor Ops : 1.048e+08 (less than 1 second per iteration)
 Threads    : 30

                  Objective                Residual
Iter       Primal          Dual         Primal    Dual     Compl     Time
   0  -1.81694088e+16 -1.58517328e+15  5.65e+06 1.56e+04  2.18e+12     4s
   1  -2.24240425e+15 -1.58335123e+15  6.95e+05 4.91e+06  6.80e+11     4s
   2  -1.28994931e+15 -1.27926611e+15  3.99e+05 6.88e+05  1.87e+11     5s
   3  -4.04771532e+14 -1.04775365e+15  1.24e+05 1.90e+05  5.77e+10     5s
   4  -7.78615761e+13 -5.65872104e+14  2.29e+04 2.96e+04  1.06e+10     5s
   5  -3.04871097e+13 -4.60507033e+14  9.33e+03 2.04e+04  5.58e+09     6s
   6  -1.63186117e+13 -3.20405893e+14  5.12e+03 1.09e+04  3.07e+09     6s
   7  -7.57596670e+12 -1.75115351e+14  2.47e+03 2.98e+03  1.16e+09     6s
   8  -2.20250710e+12 -8.47747748e+13  8.22e+02 4.34e+02  3.13e+08     6s
   9   4.35769450e+11 -1.66928306e+13  6.08e+00 5.65e+00  2.62e+07     7s
  10   2.12502637e+11 -1.59195703e+12  9.39e-01 4.72e-01  2.69e+06     7s
  11   1.07668057e+11 -6.43525068e+11  3.99e-01 1.61e-01  1.11e+06     7s
  12   4.31722376e+10 -3.17188506e+11  1.23e-01 6.34e-02  5.31e+05     8s
  13   2.65158597e+10 -1.72946834e+11  6.45e-02 1.84e-02  2.93e+05     8s
  14   1.35278104e+10 -9.69919182e+10  2.19e-02 5.59e-09  1.62e+05     8s
  15   1.04686771e+10 -5.64389467e+10  1.34e-02 5.59e-09  9.82e+04     8s
  16   1.02170071e+10 -1.72736682e+10  1.27e-02 7.45e-09  4.05e+04     9s
  17   6.73833542e+09 -5.13951252e+09  3.25e-03 7.45e-09  1.74e+04     9s
  18   5.67015129e+09 -1.14839549e+08  1.06e-03 5.59e-09  8.48e+03     9s
  19   5.44722452e+09  2.85112584e+09  7.19e-04 4.66e-09  3.81e+03     9s
  20   5.35808670e+09  3.01108415e+09  5.89e-04 3.73e-09  3.44e+03    10s
  21   5.32350755e+09  3.27336142e+09  5.38e-04 3.73e-09  3.00e+03    10s
  22   5.23904991e+09  3.55383977e+09  4.15e-04 2.79e-09  2.47e+03    10s
  23   5.14200876e+09  3.99162337e+09  2.74e-04 2.79e-09  1.68e+03    11s
  24   5.06009792e+09  4.18897334e+09  1.52e-04 2.79e-09  1.28e+03    11s
  25   5.02478865e+09  4.33352906e+09  1.01e-04 1.86e-09  1.01e+03    11s
  26   4.99445193e+09  4.54999647e+09  6.32e-05 1.86e-09  6.50e+02    12s
  27   4.97933517e+09  4.60574753e+09  4.48e-05 1.86e-09  5.47e+02    12s
  28   4.97178657e+09  4.71516289e+09  3.52e-05 1.86e-09  3.76e+02    12s
  29   4.96460430e+09  4.75253023e+09  2.70e-05 1.86e-09  3.10e+02    13s
  30   4.95907442e+09  4.78309426e+09  2.09e-05 1.86e-09  2.57e+02    13s
  31   4.95364879e+09  4.82655708e+09  1.49e-05 1.86e-09  1.86e+02    14s
  32   4.95009403e+09  4.86344142e+09  1.11e-05 1.86e-09  1.27e+02    14s
  33   4.94717852e+09  4.88331259e+09  8.00e-06 1.86e-09  9.34e+01    14s
  34   4.94425354e+09  4.89284566e+09  4.97e-06 1.86e-09  7.52e+01    15s
  35   4.94199410e+09  4.90432785e+09  2.53e-06 1.86e-09  5.51e+01    15s
  36   4.94046618e+09  4.91490196e+09  1.15e-06 1.86e-09  3.74e+01    15s
  37   4.93995239e+09  4.92839346e+09  7.37e-07 2.79e-09  1.69e+01    16s
  38   4.93944118e+09  4.93079015e+09  3.40e-07 1.86e-09  1.26e+01    16s
  39   4.93924735e+09  4.93218178e+09  1.98e-07 1.86e-09  1.03e+01    17s
  40   4.93909918e+09  4.93503386e+09  1.38e-07 1.86e-09  5.94e+00    17s
  41   4.93897744e+09  4.93660350e+09  2.85e-07 1.86e-09  3.47e+00    17s
  42   4.93895312e+09  4.93700004e+09  2.06e-07 1.86e-09  2.86e+00    17s
  43   4.93891315e+09  4.93792663e+09  1.13e-07 1.86e-09  1.44e+00    18s
  44   4.93890378e+09  4.93826831e+09  1.36e-07 1.86e-09  9.29e-01    18s
  45   4.93889559e+09  4.93843820e+09  1.63e-07 1.86e-09  6.69e-01    18s
  46   4.93889178e+09  4.93869868e+09  7.02e-08 1.86e-09  2.82e-01    18s
  47   4.93888931e+09  4.93874460e+09  3.83e-07 1.86e-09  2.12e-01    19s
  48   4.93888826e+09  4.93883921e+09  2.67e-07 1.86e-09  7.17e-02    19s
  49   4.93888705e+09  4.93887589e+09  1.20e-07 2.79e-09  1.63e-02    19s
  50   4.93888625e+09  4.93888506e+09  4.41e-08 3.21e-09  1.73e-03    20s
  51   4.93888576e+09  4.93888568e+09  2.63e-09 2.79e-09  1.29e-04    20s
  52   4.93888573e+09  4.93888570e+09  1.25e-10 2.79e-09  3.71e-05    20s
  53   4.93888573e+09  4.93888573e+09  1.91e-11 6.89e-09  2.27e-06    21s
  54   4.93888573e+09  4.93888573e+09  2.65e-08 6.13e-09  1.28e-11    21s

Barrier solved model in 54 iterations and 20.93 seconds
Optimal objective 4.93888573e+09

Crossover log...

   38505 DPushes remaining with DInf 0.0000000e+00                21s
       0 DPushes remaining with DInf 0.0000000e+00                22s
Warning: Markowitz tolerance tightened to 0.5

   61777 PPushes remaining with PInf 0.0000000e+00                22s
   36519 PPushes remaining with PInf 0.0000000e+00                26s
   12493 PPushes remaining with PInf 0.0000000e+00                31s
     320 PPushes remaining with PInf 0.0000000e+00                35s
       0 PPushes remaining with PInf 0.0000000e+00                35s

  Push phase complete: Pinf 0.0000000e+00, Dinf 4.0161121e-09     35s

Iteration    Objective       Primal Inf.    Dual Inf.      Time
   74006    4.9388857e+09   0.000000e+00   0.000000e+00     38s

Solved with barrier
Solved in 74006 iterations and 38.15 seconds
Optimal objective  4.938885729e+09
Warning: unscaled primal violation = 0.000873352 and residual = 0.000873352
